true true true
presolving:
presolving (0 rounds: 0 fast, 0 medium, 0 exhaustive):
 0 deleted vars, 0 deleted constraints, 0 added constraints, 0 tightened bounds, 0 added holes, 0 changed sides, 0 changed coefficients
 0 implications, 0 cliques
presolved problem has 58 variables (58 bin, 0 int, 0 impl, 0 cont) and 48 constraints
     48 constraints of type <linear>
transformed objective value is always integral (scale: 1)
Presolving Time: 0.00

 time | node  | left  |LP iter|LP it/n|mem/heur|mdpt |vars |cons |rows |cuts |sepa|confs|strbr|  dualbound   | primalbound  |  gap   | compl. 
p 0.0s|     1 |     0 |     0 |     - |shiftand|   0 |  58 |  48 |  48 |   0 |  0 |   0 |   0 |      --      | 1.000000e+01 |    Inf | unknown
 time | node  | left  |LP iter|LP it/n|mem/heur|mdpt |vars |cons |rows |cuts |sepa|confs|strbr|  dualbound   | primalbound  |  gap   | compl. 
  0.0s|     1 |     0 |    40 |     - |  2671k |   0 | 645 |  48 |  48 |   0 |  0 |   0 |   0 |-9.900000e+01 | 1.000000e+01 |    Inf | unknown
 time | node  | left  |LP iter|LP it/n|mem/heur|mdpt |vars |cons |rows |cuts |sepa|confs|strbr|  dualbound   | primalbound  |  gap   | compl. 
  1.5s|     1 |     0 |   358 |     - |  5713k |   0 |1627 |  48 |  48 |   0 |  0 |   0 |   0 | 9.000000e+00 | 1.000000e+01 |  11.11%| unknown
 time | node  | left  |LP iter|LP it/n|mem/heur|mdpt |vars |cons |rows |cuts |sepa|confs|strbr|  dualbound   | primalbound  |  gap   | compl. 
  1.7s|     1 |     2 |   881 |     - |  6230k |   0 |1627 |  48 |  48 |   0 |  1 |   0 |   0 | 9.000000e+00 | 1.000000e+01 |  11.11%| unknown
 time | node  | left  |LP iter|LP it/n|mem/heur|mdpt |vars |cons |rows |cuts |sepa|confs|strbr|  dualbound   | primalbound  |  gap   | compl. 
  1.7s|     2 |     3 |   885 |   4.0 |  6284k |   1 |1627 |  48 |  48 |   0 |  1 |   0 |   0 | 9.000000e+00 | 1.000000e+01 |  11.11%| unknown
 time | node  | left  |LP iter|LP it/n|mem/heur|mdpt |vars |cons |rows |cuts |sepa|confs|strbr|  dualbound   | primalbound  |  gap   | compl. 
  1.8s|     3 |     4 |   905 |  12.0 |  6646k |   1 |1627 |  48 |  48 |   0 |  1 |   0 |   0 | 9.000000e+00 | 1.000000e+01 |  11.11%| unknown
 time | node  | left  |LP iter|LP it/n|mem/heur|mdpt |vars |cons |rows |cuts |sepa|confs|strbr|  dualbound   | primalbound  |  gap   | compl. 
  1.8s|     4 |     5 |   934 |  17.7 |  6675k |   2 |1627 |  48 |  48 |   0 |  1 |   0 |   0 | 9.000000e+00 | 1.000000e+01 |  11.11%| unknown
 time | node  | left  |LP iter|LP it/n|mem/heur|mdpt |vars |cons |rows |cuts |sepa|confs|strbr|  dualbound   | primalbound  |  gap   | compl. 
  1.9s|     5 |     6 |   940 |  14.8 |  6682k |   2 |1627 |  48 |  48 |   0 |  1 |   0 |   0 | 9.000000e+00 | 1.000000e+01 |  11.11%| unknown
 time | node  | left  |LP iter|LP it/n|mem/heur|mdpt |vars |cons |rows |cuts |sepa|confs|strbr|  dualbound   | primalbound  |  gap   | compl. 
  2.0s|     6 |     7 |   958 |  15.4 |  6693k |   3 |1627 |  48 |  48 |   0 |  1 |   0 |   0 | 9.000000e+00 | 1.000000e+01 |  11.11%| unknown
 time | node  | left  |LP iter|LP it/n|mem/heur|mdpt |vars |cons |rows |cuts |sepa|confs|strbr|  dualbound   | primalbound  |  gap   | compl. 
  2.2s|     7 |     8 |  1521 | 106.7 |  7220k |   3 |1627 |  48 |  48 |   0 |  1 |   0 |   0 | 9.000000e+00 | 1.000000e+01 |  11.11%| unknown
 time | node  | left  |LP iter|LP it/n|mem/heur|mdpt |vars |cons |rows |cuts |sepa|confs|strbr|  dualbound   | primalbound  |  gap   | compl. 
  2.3s|     8 |     9 |  1526 |  92.1 |  7225k |   4 |1627 |  48 |  48 |   0 |  1 |   0 |   0 | 9.000000e+00 | 1.000000e+01 |  11.11%| unknown
 time | node  | left  |LP iter|LP it/n|mem/heur|mdpt |vars |cons |rows |cuts |sepa|confs|strbr|  dualbound   | primalbound  |  gap   | compl. 
  2.4s|     9 |    10 |  1560 |  84.9 |  7233k |   5 |1627 |  48 |  48 |   0 |  1 |   0 |   0 | 9.000000e+00 | 1.000000e+01 |  11.11%| unknown
 time | node  | left  |LP iter|LP it/n|mem/heur|mdpt |vars |cons |rows |cuts |sepa|confs|strbr|  dualbound   | primalbound  |  gap   | compl. 
  2.5s|    10 |    11 |  1569 |  76.4 |  7234k |   5 |1627 |  48 |  48 |   0 |  1 |   0 |   0 | 9.000000e+00 | 1.000000e+01 |  11.11%| unknown
 time | node  | left  |LP iter|LP it/n|mem/heur|mdpt |vars |cons |rows |cuts |sepa|confs|strbr|  dualbound   | primalbound  |  gap   | compl. 
  2.7s|    11 |    12 |  1589 |  70.8 |  7246k |   6 |1627 |  48 |  48 |   0 |  1 |   0 |   0 | 9.000000e+00 | 1.000000e+01 |  11.11%| unknown
 time | node  | left  |LP iter|LP it/n|mem/heur|mdpt |vars |cons |rows |cuts |sepa|confs|strbr|  dualbound   | primalbound  |  gap   | compl. 
  2.8s|    12 |    13 |  1629 |  68.0 |  7248k |   7 |1627 |  48 |  48 |   0 |  1 |   0 |   0 | 9.000000e+00 | 1.000000e+01 |  11.11%| unknown
 time | node  | left  |LP iter|LP it/n|mem/heur|mdpt |vars |cons |rows |cuts |sepa|confs|strbr|  dualbound   | primalbound  |  gap   | compl. 
  2.9s|    13 |    14 |  1672 |  65.9 |  7250k |   7 |1627 |  48 |  48 |   0 |  1 |   0 |   0 | 9.000000e+00 | 1.000000e+01 |  11.11%| unknown
 time | node  | left  |LP iter|LP it/n|mem/heur|mdpt |vars |cons |rows |cuts |sepa|confs|strbr|  dualbound   | primalbound  |  gap   | compl. 
  3.1s|    14 |    15 |  1704 |  63.3 |  7250k |   8 |1627 |  48 |  48 |   0 |  1 |   0 |   0 | 9.000000e+00 | 1.000000e+01 |  11.11%| unknown
 time | node  | left  |LP iter|LP it/n|mem/heur|mdpt |vars |cons |rows |cuts |sepa|confs|strbr|  dualbound   | primalbound  |  gap   | compl. 
  3.2s|    15 |    16 |  1710 |  59.2 |  7252k |   9 |1627 |  48 |  48 |   0 |  1 |   0 |   0 | 9.000000e+00 | 1.000000e+01 |  11.11%| unknown
 time | node  | left  |LP iter|LP it/n|mem/heur|mdpt |vars |cons |rows |cuts |sepa|confs|strbr|  dualbound   | primalbound  |  gap   | compl. 
  3.3s|    16 |    17 |  1728 |  56.5 |  7252k |  10 |1627 |  48 |  48 |   0 |  1 |   0 |   0 | 9.000000e+00 | 1.000000e+01 |  11.11%| unknown
 time | node  | left  |LP iter|LP it/n|mem/heur|mdpt |vars |cons |rows |cuts |sepa|confs|strbr|  dualbound   | primalbound  |  gap   | compl. 
  3.5s|    17 |    18 |  1732 |  53.2 |  7252k |  11 |1627 |  48 |  48 |   0 |  1 |   0 |   0 | 9.000000e+00 | 1.000000e+01 |  11.11%| unknown
 time | node  | left  |LP iter|LP it/n|mem/heur|mdpt |vars |cons |rows |cuts |sepa|confs|strbr|  dualbound   | primalbound  |  gap   | compl. 
  3.6s|    18 |    19 |  1733 |  50.1 |  7252k |  12 |1627 |  48 |  48 |   0 |  1 |   0 |   0 | 9.000000e+00 | 1.000000e+01 |  11.11%| unknown
 time | node  | left  |LP iter|LP it/n|mem/heur|mdpt |vars |cons |rows |cuts |sepa|confs|strbr|  dualbound   | primalbound  |  gap   | compl. 
  3.7s|    19 |    20 |  1742 |  47.8 |  7252k |  13 |1627 |  48 |  48 |   0 |  1 |   0 |   0 | 9.000000e+00 | 1.000000e+01 |  11.11%| unknown
 time | node  | left  |LP iter|LP it/n|mem/heur|mdpt |vars |cons |rows |cuts |sepa|confs|strbr|  dualbound   | primalbound  |  gap   | compl. 
  3.8s|    20 |    21 |  1748 |  45.6 |  7254k |  14 |1627 |  48 |  48 |   0 |  1 |   0 |   0 | 9.000000e+00 | 1.000000e+01 |  11.11%| unknown
 time | node  | left  |LP iter|LP it/n|mem/heur|mdpt |vars |cons |rows |cuts |sepa|confs|strbr|  dualbound   | primalbound  |  gap   | compl. 
r 4.0s|    21 |     0 |  1750 |  43.5 |simplero|  15 |1627 |  48 |  48 |   0 |  0 |   0 |   0 | 9.000000e+00 | 9.000000e+00 |   0.00%| 100.00%

SCIP Status        : problem is solved [optimal solution found]
Solving Time (sec) : 3.96
Solving Nodes      : 21
Primal Bound       : +9.00000000000000e+00 (5 solutions)
Dual Bound         : +9.00000000000000e+00
Gap                : 0.00 %
Running with parallel: True bidir: True symbreak: True
Number of Nodes:  48
48.878761574074076% holds
starting cheapest insertion heuristic
Heuristic without TSP improvement:  10
Heuristic without TSP improvement time:  0.1
Heuristic Sol:  10
Heuristic total time:  0.1
[[21, 28, 18, 15, 13], [47, 2, 25, 26], [46, 0, 34, 16, 32, 38, 14, 44], [45, 9, 6, 4, 19, 41, 8], [43, 10, 12], [42, 17, 40, 20, 5], [39, 23, 11, 36, 31, 3], [37, 27, 24, 29], [35], [33, 1, 22, 7, 30]]
Instance path:  /home/htc/mghannam/SCRATCH/lccp-rust/data/t84_hk48.npcc
Timelimit:  7200
Heuristic without TSP improvement:  10
Heuristic without TSP improvement time:  0.1
Heuristic Sol:  10
Heuristic total time:  0.2
at 1 zero_duals: 38
Switching to elementary pricing
at1, LP obj: 10.0 n_added_paths: 587
updated lowerbound from -1e+20 to -99
at 1 zero_duals: 21
at1, LP obj: 10.0 n_added_paths: 166
at 1 zero_duals: 11
Switching to elementary pricing
at1, LP obj: 9.3125 n_added_paths: 297
at 1 zero_duals: 7
at1, LP obj: 9.039351851851851 n_added_paths: 225
at 1 zero_duals: 1
Switching to elementary pricing
at1, LP obj: 8.761808367071525 n_added_paths: 223
updated lowerbound from 1.0 to 4
at 1 zero_duals: 4
Switching to elementary pricing
at1, LP obj: 8.25 n_added_paths: 55
updated lowerbound from 4.0 to 8
Switching to elementary pricing
at1, LP obj: 8.239234449760765 n_added_paths: 12
at 1 zero_duals: 3
Switching to elementary pricing
at1, LP obj: 8.236842105263158 n_added_paths: 4
updated lowerbound from 8.0 to 9
Gap too small = 0, stopping pricing with lb = 9
Gap too small = 0, stopping pricing with lb = 9
Gap too small = 0, stopping pricing with lb = 9
Gap too small = 0, stopping pricing with lb = 9
Gap too small = 0, stopping pricing with lb = 9
Gap too small = 0, stopping pricing with lb = 9
Gap too small = 0, stopping pricing with lb = 9
Gap too small = 0, stopping pricing with lb = 9
Gap too small = 0, stopping pricing with lb = 9
Gap too small = 0, stopping pricing with lb = 9
Gap too small = 0, stopping pricing with lb = 9
Gap too small = 0, stopping pricing with lb = 9
Gap too small = 0, stopping pricing with lb = 9
Gap too small = 0, stopping pricing with lb = 9
Gap too small = 0, stopping pricing with lb = 9
Gap too small = 0, stopping pricing with lb = 9
Gap too small = 0, stopping pricing with lb = 9
Gap too small = 0, stopping pricing with lb = 9
Gap too small = 0, stopping pricing with lb = 9
Gap too small = 0, stopping pricing with lb = 9
Gap too small = 0, stopping pricing with lb = 9
Best solution found:
t_[21, 28, 18, 15, 13, 21] 1.0 1.0
checking cycle [21, 28, 18, 15, 13, 21]
[21, 28, 18, 15, 13, 21] 1930 1840
[43, 35, 10, 43] 1.0 1.0
checking cycle [43, 35, 10, 43]
[43, 35, 10, 43] 1562 1357
[20, 5, 1, 17, 20] 1.0 1.0
checking cycle [20, 5, 1, 17, 20]
[20, 5, 1, 17, 20] 2227 2185
[45, 8, 39, 3, 45] 1.0 1.0
checking cycle [45, 8, 39, 3, 45]
[45, 8, 39, 3, 45] 1550 1459
[47, 26, 31, 47] 1.0 1.0
checking cycle [47, 26, 31, 47]
[47, 26, 31, 47] 1438 1289
[33, 7, 2, 25, 12, 30, 33] 1.0 1.0
checking cycle [33, 7, 2, 25, 12, 30, 33]
[33, 7, 2, 25, 12, 30, 33] 1850 1753
[42, 38, 14, 0, 34, 16, 32, 40, 42] 1.0 1.0
checking cycle [42, 38, 14, 0, 34, 16, 32, 40, 42]
[42, 38, 14, 0, 34, 16, 32, 40, 42] 1640 1409
[41, 9, 24, 27, 29, 37, 6, 4, 19, 41] 1.0 1.0
checking cycle [41, 9, 24, 27, 29, 37, 6, 4, 19, 41]
[41, 9, 24, 27, 29, 37, 6, 4, 19, 41] 1666 1636
[46, 36, 23, 11, 22, 44, 46] 1.0 1.0
checking cycle [46, 36, 23, 11, 22, 44, 46]
[46, 36, 23, 11, 22, 44, 46] 1479 1336
